c 11100110100111101010010111111001101001111001101001000000000000111001101001000000000000111001101001000000000000000000000000111001101001000000000000111001101001111001101001011101101001010101101010100010100000000010101000100111100010101001011010001010001010100000101000011101010111011001011010100000001000100000101000000000100010000010100000101001101010101001100010100010101010100010001000100111010111010101011010100101101010100010101010
p cnf 434 2232
-26 -14 27 0
14 -27 0
26 -27 0
-2 -14 28 0
14 -28 0
2 -28 0
-3 -14 29 0
14 -29 0
3 -29 0
-4 -14 30 0
14 -30 0
4 -30 0
-5 -14 31 0
14 -31 0
5 -31 0
-6 -14 32 0
14 -32 0
6 -32 0
-7 -14 33 0
14 -33 0
7 -33 0
-8 -14 34 0
14 -34 0
8 -34 0
-9 -14 35 0
14 -35 0
9 -35 0
-10 -14 36 0
14 -36 0
10 -36 0
-11 -14 37 0
14 -37 0
11 -37 0
-12 -14 38 0
14 -38 0
12 -38 0
-26 -15 39 0
15 -39 0
26 -39 0
-2 -15 40 0
15 -40 0
2 -40 0
-3 -15 41 0
15 -41 0
3 -41 0
-4 -15 42 0
15 -42 0
4 -42 0
-5 -15 43 0
15 -43 0
5 -43 0
-6 -15 44 0
15 -44 0
6 -44 0
-7 -15 45 0
15 -45 0
7 -45 0
-8 -15 46 0
15 -46 0
8 -46 0
-9 -15 47 0
15 -47 0
9 -47 0
-10 -15 48 0
15 -48 0
10 -48 0
-11 -15 49 0
15 -49 0
11 -49 0
-12 -15 50 0
15 -50 0
12 -50 0
-26 -16 51 0
16 -51 0
26 -51 0
-2 -16 52 0
16 -52 0
2 -52 0
-3 -16 53 0
16 -53 0
3 -53 0
-4 -16 54 0
16 -54 0
4 -54 0
-5 -16 55 0
16 -55 0
5 -55 0
-6 -16 56 0
16 -56 0
6 -56 0
-7 -16 57 0
16 -57 0
7 -57 0
-8 -16 58 0
16 -58 0
8 -58 0
-9 -16 59 0
16 -59 0
9 -59 0
-10 -16 60 0
16 -60 0
10 -60 0
-11 -16 61 0
16 -61 0
11 -61 0
-12 -16 62 0
16 -62 0
12 -62 0
-26 -17 63 0
17 -63 0
26 -63 0
-2 -17 64 0
17 -64 0
2 -64 0
-3 -17 65 0
17 -65 0
3 -65 0
-4 -17 66 0
17 -66 0
4 -66 0
-5 -17 67 0
17 -67 0
5 -67 0
-6 -17 68 0
17 -68 0
6 -68 0
-7 -17 69 0
17 -69 0
7 -69 0
-8 -17 70 0
17 -70 0
8 -70 0
-9 -17 71 0
17 -71 0
9 -71 0
-10 -17 72 0
17 -72 0
10 -72 0
-11 -17 73 0
17 -73 0
11 -73 0
-12 -17 74 0
17 -74 0
12 -74 0
-26 -18 75 0
18 -75 0
26 -75 0
-2 -18 76 0
18 -76 0
2 -76 0
-3 -18 77 0
18 -77 0
3 -77 0
-4 -18 78 0
18 -78 0
4 -78 0
-5 -18 79 0
18 -79 0
5 -79 0
-6 -18 80 0
18 -80 0
6 -80 0
-7 -18 81 0
18 -81 0
7 -81 0
-8 -18 82 0
18 -82 0
8 -82 0
-9 -18 83 0
18 -83 0
9 -83 0
-10 -18 84 0
18 -84 0
10 -84 0
-11 -18 85 0
18 -85 0
11 -85 0
-12 -18 86 0
18 -86 0
12 -86 0
-26 -19 87 0
19 -87 0
26 -87 0
-2 -19 88 0
19 -88 0
2 -88 0
-3 -19 89 0
19 -89 0
3 -89 0
-4 -19 90 0
19 -90 0
4 -90 0
-5 -19 91 0
19 -91 0
5 -91 0
-6 -19 92 0
19 -92 0
6 -92 0
-7 -19 93 0
19 -93 0
7 -93 0
-8 -19 94 0
19 -94 0
8 -94 0
-9 -19 95 0
19 -95 0
9 -95 0
-10 -19 96 0
19 -96 0
10 -96 0
-11 -19 97 0
19 -97 0
11 -97 0
-12 -19 98 0
19 -98 0
12 -98 0
-26 -20 99 0
20 -99 0
26 -99 0
-2 -20 100 0
20 -100 0
2 -100 0
-3 -20 101 0
20 -101 0
3 -101 0
-4 -20 102 0
20 -102 0
4 -102 0
-5 -20 103 0
20 -103 0
5 -103 0
-6 -20 104 0
20 -104 0
6 -104 0
-7 -20 105 0
20 -105 0
7 -105 0
-8 -20 106 0
20 -106 0
8 -106 0
-9 -20 107 0
20 -107 0
9 -107 0
-10 -20 108 0
20 -108 0
10 -108 0
-11 -20 109 0
20 -109 0
11 -109 0
-12 -20 110 0
20 -110 0
12 -110 0
-26 -21 111 0
21 -111 0
26 -111 0
-2 -21 112 0
21 -112 0
2 -112 0
-3 -21 113 0
21 -113 0
3 -113 0
-4 -21 114 0
21 -114 0
4 -114 0
-5 -21 115 0
21 -115 0
5 -115 0
-6 -21 116 0
21 -116 0
6 -116 0
-7 -21 117 0
21 -117 0
7 -117 0
-8 -21 118 0
21 -118 0
8 -118 0
-9 -21 119 0
21 -119 0
9 -119 0
-10 -21 120 0
21 -120 0
10 -120 0
-11 -21 121 0
21 -121 0
11 -121 0
-12 -21 122 0
21 -122 0
12 -122 0
-26 -22 123 0
22 -123 0
26 -123 0
-2 -22 124 0
22 -124 0
2 -124 0
-3 -22 125 0
22 -125 0
3 -125 0
-4 -22 126 0
22 -126 0
4 -126 0
-5 -22 127 0
22 -127 0
5 -127 0
-6 -22 128 0
22 -128 0
6 -128 0
-7 -22 129 0
22 -129 0
7 -129 0
-8 -22 130 0
22 -130 0
8 -130 0
-9 -22 131 0
22 -131 0
9 -131 0
-10 -22 132 0
22 -132 0
10 -132 0
-11 -22 133 0
22 -133 0
11 -133 0
-12 -22 134 0
22 -134 0
12 -134 0
-26 -23 135 0
23 -135 0
26 -135 0
-2 -23 136 0
23 -136 0
2 -136 0
-3 -23 137 0
23 -137 0
3 -137 0
-4 -23 138 0
23 -138 0
4 -138 0
-5 -23 139 0
23 -139 0
5 -139 0
-6 -23 140 0
23 -140 0
6 -140 0
-7 -23 141 0
23 -141 0
7 -141 0
-8 -23 142 0
23 -142 0
8 -142 0
-9 -23 143 0
23 -143 0
9 -143 0
-10 -23 144 0
23 -144 0
10 -144 0
-11 -23 145 0
23 -145 0
11 -145 0
-12 -23 146 0
23 -146 0
12 -146 0
-26 -24 147 0
24 -147 0
26 -147 0
-2 -24 148 0
24 -148 0
2 -148 0
-3 -24 149 0
24 -149 0
3 -149 0
-4 -24 150 0
24 -150 0
4 -150 0
-5 -24 151 0
24 -151 0
5 -151 0
-6 -24 152 0
24 -152 0
6 -152 0
-7 -24 153 0
24 -153 0
7 -153 0
-8 -24 154 0
24 -154 0
8 -154 0
-9 -24 155 0
24 -155 0
9 -155 0
-10 -24 156 0
24 -156 0
10 -156 0
-11 -24 157 0
24 -157 0
11 -157 0
-12 -24 158 0
24 -158 0
12 -158 0
-26 -25 159 0
25 -159 0
26 -159 0
-2 -25 160 0
25 -160 0
2 -160 0
-3 -25 161 0
25 -161 0
3 -161 0
-4 -25 162 0
25 -162 0
4 -162 0
-5 -25 163 0
25 -163 0
5 -163 0
-6 -25 164 0
25 -164 0
6 -164 0
-7 -25 165 0
25 -165 0
7 -165 0
-8 -25 166 0
25 -166 0
8 -166 0
-9 -25 167 0
25 -167 0
9 -167 0
-10 -25 168 0
25 -168 0
10 -168 0
-11 -25 169 0
25 -169 0
11 -169 0
-12 -25 170 0
25 -170 0
12 -170 0
28 39 -171 0
-28 -39 -171 0
-28 39 171 0
28 -39 171 0
39 -172 0
28 -172 0
28 39 -172 0
-28 -39 172 0
29 40 172 -173 0
-29 -40 172 -173 0
-29 40 -172 -173 0
29 -40 -172 -173 0
29 40 -172 173 0
-29 -40 -172 173 0
-29 40 172 173 0
29 -40 172 173 0
40 172 -174 0
29 172 -174 0
29 40 -174 0
-40 -172 174 0
-29 -172 174 0
-29 -40 174 0
30 41 174 -175 0
-30 -41 174 -175 0
-30 41 -174 -175 0
30 -41 -174 -175 0
30 41 -174 175 0
-30 -41 -174 175 0
-30 41 174 175 0
30 -41 174 175 0
41 174 -176 0
30 174 -176 0
30 41 -176 0
-41 -174 176 0
-30 -174 176 0
-30 -41 176 0
31 42 176 -177 0
-31 -42 176 -177 0
-31 42 -176 -177 0
31 -42 -176 -177 0
31 42 -176 177 0
-31 -42 -176 177 0
-31 42 176 177 0
31 -42 176 177 0
42 176 -178 0
31 176 -178 0
31 42 -178 0
-42 -176 178 0
-31 -176 178 0
-31 -42 178 0
32 43 178 -179 0
-32 -43 178 -179 0
-32 43 -178 -179 0
32 -43 -178 -179 0
32 43 -178 179 0
-32 -43 -178 179 0
-32 43 178 179 0
32 -43 178 179 0
43 178 -180 0
32 178 -180 0
32 43 -180 0
-43 -178 180 0
-32 -178 180 0
-32 -43 180 0
33 44 180 -181 0
-33 -44 180 -181 0
-33 44 -180 -181 0
33 -44 -180 -181 0
33 44 -180 181 0
-33 -44 -180 181 0
-33 44 180 181 0
33 -44 180 181 0
44 180 -182 0
33 180 -182 0
33 44 -182 0
-44 -180 182 0
-33 -180 182 0
-33 -44 182 0
34 45 182 -183 0
-34 -45 182 -183 0
-34 45 -182 -183 0
34 -45 -182 -183 0
34 45 -182 183 0
-34 -45 -182 183 0
-34 45 182 183 0
34 -45 182 183 0
45 182 -184 0
34 182 -184 0
34 45 -184 0
-45 -182 184 0
-34 -182 184 0
-34 -45 184 0
35 46 184 -185 0
-35 -46 184 -185 0
-35 46 -184 -185 0
35 -46 -184 -185 0
35 46 -184 185 0
-35 -46 -184 185 0
-35 46 184 185 0
35 -46 184 185 0
46 184 -186 0
35 184 -186 0
35 46 -186 0
-46 -184 186 0
-35 -184 186 0
-35 -46 186 0
36 47 186 -187 0
-36 -47 186 -187 0
-36 47 -186 -187 0
36 -47 -186 -187 0
36 47 -186 187 0
-36 -47 -186 187 0
-36 47 186 187 0
36 -47 186 187 0
47 186 -188 0
36 186 -188 0
36 47 -188 0
-47 -186 188 0
-36 -186 188 0
-36 -47 188 0
37 48 188 -189 0
-37 -48 188 -189 0
-37 48 -188 -189 0
37 -48 -188 -189 0
37 48 -188 189 0
-37 -48 -188 189 0
-37 48 188 189 0
37 -48 188 189 0
48 188 -190 0
37 188 -190 0
37 48 -190 0
-48 -188 190 0
-37 -188 190 0
-37 -48 190 0
38 49 190 -191 0
-38 -49 190 -191 0
-38 49 -190 -191 0
38 -49 -190 -191 0
38 49 -190 191 0
-38 -49 -190 191 0
-38 49 190 191 0
38 -49 190 191 0
49 190 -192 0
38 190 -192 0
38 49 -192 0
-49 -190 192 0
-38 -190 192 0
-38 -49 192 0
50 192 -193 0
-50 -192 -193 0
50 -192 193 0
-50 192 193 0
50 192 -194 0
192 -194 0
50 -194 0
-50 -192 194 0
173 51 -195 0
-173 -51 -195 0
-173 51 195 0
173 -51 195 0
51 -196 0
173 -196 0
173 51 -196 0
-173 -51 196 0
175 52 196 -197 0
-175 -52 196 -197 0
-175 52 -196 -197 0
175 -52 -196 -197 0
175 52 -196 197 0
-175 -52 -196 197 0
-175 52 196 197 0
175 -52 196 197 0
52 196 -198 0
175 196 -198 0
175 52 -198 0
-52 -196 198 0
-175 -196 198 0
-175 -52 198 0
177 53 198 -199 0
-177 -53 198 -199 0
-177 53 -198 -199 0
177 -53 -198 -199 0
177 53 -198 199 0
-177 -53 -198 199 0
-177 53 198 199 0
177 -53 198 199 0
53 198 -200 0
177 198 -200 0
177 53 -200 0
-53 -198 200 0
-177 -198 200 0
-177 -53 200 0
179 54 200 -201 0
-179 -54 200 -201 0
-179 54 -200 -201 0
179 -54 -200 -201 0
179 54 -200 201 0
-179 -54 -200 201 0
-179 54 200 201 0
179 -54 200 201 0
54 200 -202 0
179 200 -202 0
179 54 -202 0
-54 -200 202 0
-179 -200 202 0
-179 -54 202 0
181 55 202 -203 0
-181 -55 202 -203 0
-181 55 -202 -203 0
181 -55 -202 -203 0
181 55 -202 203 0
-181 -55 -202 203 0
-181 55 202 203 0
181 -55 202 203 0
55 202 -204 0
181 202 -204 0
181 55 -204 0
-55 -202 204 0
-181 -202 204 0
-181 -55 204 0
183 56 204 -205 0
-183 -56 204 -205 0
-183 56 -204 -205 0
183 -56 -204 -205 0
183 56 -204 205 0
-183 -56 -204 205 0
-183 56 204 205 0
183 -56 204 205 0
56 204 -206 0
183 204 -206 0
183 56 -206 0
-56 -204 206 0
-183 -204 206 0
-183 -56 206 0
185 57 206 -207 0
-185 -57 206 -207 0
-185 57 -206 -207 0
185 -57 -206 -207 0
185 57 -206 207 0
-185 -57 -206 207 0
-185 57 206 207 0
185 -57 206 207 0
57 206 -208 0
185 206 -208 0
185 57 -208 0
-57 -206 208 0
-185 -206 208 0
-185 -57 208 0
187 58 208 -209 0
-187 -58 208 -209 0
-187 58 -208 -209 0
187 -58 -208 -209 0
187 58 -208 209 0
-187 -58 -208 209 0
-187 58 208 209 0
187 -58 208 209 0
58 208 -210 0
187 208 -210 0
187 58 -210 0
-58 -208 210 0
-187 -208 210 0
-187 -58 210 0
189 59 210 -211 0
-189 -59 210 -211 0
-189 59 -210 -211 0
189 -59 -210 -211 0
189 59 -210 211 0
-189 -59 -210 211 0
-189 59 210 211 0
189 -59 210 211 0
59 210 -212 0
189 210 -212 0
189 59 -212 0
-59 -210 212 0
-189 -210 212 0
-189 -59 212 0
191 60 212 -213 0
-191 -60 212 -213 0
-191 60 -212 -213 0
191 -60 -212 -213 0
191 60 -212 213 0
-191 -60 -212 213 0
-191 60 212 213 0
191 -60 212 213 0
60 212 -214 0
191 212 -214 0
191 60 -214 0
-60 -212 214 0
-191 -212 214 0
-191 -60 214 0
193 61 214 -215 0
-193 -61 214 -215 0
-193 61 -214 -215 0
193 -61 -214 -215 0
193 61 -214 215 0
-193 -61 -214 215 0
-193 61 214 215 0
193 -61 214 215 0
61 214 -216 0
193 214 -216 0
193 61 -216 0
-61 -214 216 0
-193 -214 216 0
-193 -61 216 0
194 62 216 -217 0
-194 -62 216 -217 0
-194 62 -216 -217 0
194 -62 -216 -217 0
194 62 -216 217 0
-194 -62 -216 217 0
-194 62 216 217 0
194 -62 216 217 0
62 216 -218 0
194 216 -218 0
194 62 -218 0
-62 -216 218 0
-194 -216 218 0
-194 -62 218 0
197 63 -219 0
-197 -63 -219 0
-197 63 219 0
197 -63 219 0
63 -220 0
197 -220 0
197 63 -220 0
-197 -63 220 0
199 64 220 -221 0
-199 -64 220 -221 0
-199 64 -220 -221 0
199 -64 -220 -221 0
199 64 -220 221 0
-199 -64 -220 221 0
-199 64 220 221 0
199 -64 220 221 0
64 220 -222 0
199 220 -222 0
199 64 -222 0
-64 -220 222 0
-199 -220 222 0
-199 -64 222 0
201 65 222 -223 0
-201 -65 222 -223 0
-201 65 -222 -223 0
201 -65 -222 -223 0
201 65 -222 223 0
-201 -65 -222 223 0
-201 65 222 223 0
201 -65 222 223 0
65 222 -224 0
201 222 -224 0
201 65 -224 0
-65 -222 224 0
-201 -222 224 0
-201 -65 224 0
203 66 224 -225 0
-203 -66 224 -225 0
-203 66 -224 -225 0
203 -66 -224 -225 0
203 66 -224 225 0
-203 -66 -224 225 0
-203 66 224 225 0
203 -66 224 225 0
66 224 -226 0
203 224 -226 0
203 66 -226 0
-66 -224 226 0
-203 -224 226 0
-203 -66 226 0
205 67 226 -227 0
-205 -67 226 -227 0
-205 67 -226 -227 0
205 -67 -226 -227 0
205 67 -226 227 0
-205 -67 -226 227 0
-205 67 226 227 0
205 -67 226 227 0
67 226 -228 0
205 226 -228 0
205 67 -228 0
-67 -226 228 0
-205 -226 228 0
-205 -67 228 0
207 68 228 -229 0
-207 -68 228 -229 0
-207 68 -228 -229 0
207 -68 -228 -229 0
207 68 -228 229 0
-207 -68 -228 229 0
-207 68 228 229 0
207 -68 228 229 0
68 228 -230 0
207 228 -230 0
207 68 -230 0
-68 -228 230 0
-207 -228 230 0
-207 -68 230 0
209 69 230 -231 0
-209 -69 230 -231 0
-209 69 -230 -231 0
209 -69 -230 -231 0
209 69 -230 231 0
-209 -69 -230 231 0
-209 69 230 231 0
209 -69 230 231 0
69 230 -232 0
209 230 -232 0
209 69 -232 0
-69 -230 232 0
-209 -230 232 0
-209 -69 232 0
211 70 232 -233 0
-211 -70 232 -233 0
-211 70 -232 -233 0
211 -70 -232 -233 0
211 70 -232 233 0
-211 -70 -232 233 0
-211 70 232 233 0
211 -70 232 233 0
70 232 -234 0
211 232 -234 0
211 70 -234 0
-70 -232 234 0
-211 -232 234 0
-211 -70 234 0
213 71 234 -235 0
-213 -71 234 -235 0
-213 71 -234 -235 0
213 -71 -234 -235 0
213 71 -234 235 0
-213 -71 -234 235 0
-213 71 234 235 0
213 -71 234 235 0
71 234 -236 0
213 234 -236 0
213 71 -236 0
-71 -234 236 0
-213 -234 236 0
-213 -71 236 0
215 72 236 -237 0
-215 -72 236 -237 0
-215 72 -236 -237 0
215 -72 -236 -237 0
215 72 -236 237 0
-215 -72 -236 237 0
-215 72 236 237 0
215 -72 236 237 0
72 236 -238 0
215 236 -238 0
215 72 -238 0
-72 -236 238 0
-215 -236 238 0
-215 -72 238 0
217 73 238 -239 0
-217 -73 238 -239 0
-217 73 -238 -239 0
217 -73 -238 -239 0
217 73 -238 239 0
-217 -73 -238 239 0
-217 73 238 239 0
217 -73 238 239 0
73 238 -240 0
217 238 -240 0
217 73 -240 0
-73 -238 240 0
-217 -238 240 0
-217 -73 240 0
218 74 240 -241 0
-218 -74 240 -241 0
-218 74 -240 -241 0
218 -74 -240 -241 0
218 74 -240 241 0
-218 -74 -240 241 0
-218 74 240 241 0
218 -74 240 241 0
74 240 -242 0
218 240 -242 0
218 74 -242 0
-74 -240 242 0
-218 -240 242 0
-218 -74 242 0
221 75 -243 0
-221 -75 -243 0
-221 75 243 0
221 -75 243 0
75 -244 0
221 -244 0
221 75 -244 0
-221 -75 244 0
223 76 244 -245 0
-223 -76 244 -245 0
-223 76 -244 -245 0
223 -76 -244 -245 0
223 76 -244 245 0
-223 -76 -244 245 0
-223 76 244 245 0
223 -76 244 245 0
76 244 -246 0
223 244 -246 0
223 76 -246 0
-76 -244 246 0
-223 -244 246 0
-223 -76 246 0
225 77 246 -247 0
-225 -77 246 -247 0
-225 77 -246 -247 0
225 -77 -246 -247 0
225 77 -246 247 0
-225 -77 -246 247 0
-225 77 246 247 0
225 -77 246 247 0
77 246 -248 0
225 246 -248 0
225 77 -248 0
-77 -246 248 0
-225 -246 248 0
-225 -77 248 0
227 78 248 -249 0
-227 -78 248 -249 0
-227 78 -248 -249 0
227 -78 -248 -249 0
227 78 -248 249 0
-227 -78 -248 249 0
-227 78 248 249 0
227 -78 248 249 0
78 248 -250 0
227 248 -250 0
227 78 -250 0
-78 -248 250 0
-227 -248 250 0
-227 -78 250 0
229 79 250 -251 0
-229 -79 250 -251 0
-229 79 -250 -251 0
229 -79 -250 -251 0
229 79 -250 251 0
-229 -79 -250 251 0
-229 79 250 251 0
229 -79 250 251 0
79 250 -252 0
229 250 -252 0
229 79 -252 0
-79 -250 252 0
-229 -250 252 0
-229 -79 252 0
231 80 252 -253 0
-231 -80 252 -253 0
-231 80 -252 -253 0
231 -80 -252 -253 0
231 80 -252 253 0
-231 -80 -252 253 0
-231 80 252 253 0
231 -80 252 253 0
80 252 -254 0
231 252 -254 0
231 80 -254 0
-80 -252 254 0
-231 -252 254 0
-231 -80 254 0
233 81 254 -255 0
-233 -81 254 -255 0
-233 81 -254 -255 0
233 -81 -254 -255 0
233 81 -254 255 0
-233 -81 -254 255 0
-233 81 254 255 0
233 -81 254 255 0
81 254 -256 0
233 254 -256 0
233 81 -256 0
-81 -254 256 0
-233 -254 256 0
-233 -81 256 0
235 82 256 -257 0
-235 -82 256 -257 0
-235 82 -256 -257 0
235 -82 -256 -257 0
235 82 -256 257 0
-235 -82 -256 257 0
-235 82 256 257 0
235 -82 256 257 0
82 256 -258 0
235 256 -258 0
235 82 -258 0
-82 -256 258 0
-235 -256 258 0
-235 -82 258 0
237 83 258 -259 0
-237 -83 258 -259 0
-237 83 -258 -259 0
237 -83 -258 -259 0
237 83 -258 259 0
-237 -83 -258 259 0
-237 83 258 259 0
237 -83 258 259 0
83 258 -260 0
237 258 -260 0
237 83 -260 0
-83 -258 260 0
-237 -258 260 0
-237 -83 260 0
239 84 260 -261 0
-239 -84 260 -261 0
-239 84 -260 -261 0
239 -84 -260 -261 0
239 84 -260 261 0
-239 -84 -260 261 0
-239 84 260 261 0
239 -84 260 261 0
84 260 -262 0
239 260 -262 0
239 84 -262 0
-84 -260 262 0
-239 -260 262 0
-239 -84 262 0
241 85 262 -263 0
-241 -85 262 -263 0
-241 85 -262 -263 0
241 -85 -262 -263 0
241 85 -262 263 0
-241 -85 -262 263 0
-241 85 262 263 0
241 -85 262 263 0
85 262 -264 0
241 262 -264 0
241 85 -264 0
-85 -262 264 0
-241 -262 264 0
-241 -85 264 0
242 86 264 -265 0
-242 -86 264 -265 0
-242 86 -264 -265 0
242 -86 -264 -265 0
242 86 -264 265 0
-242 -86 -264 265 0
-242 86 264 265 0
242 -86 264 265 0
86 264 -266 0
242 264 -266 0
242 86 -266 0
-86 -264 266 0
-242 -264 266 0
-242 -86 266 0
245 87 -267 0
-245 -87 -267 0
-245 87 267 0
245 -87 267 0
87 -268 0
245 -268 0
245 87 -268 0
-245 -87 268 0
247 88 268 -269 0
-247 -88 268 -269 0
-247 88 -268 -269 0
247 -88 -268 -269 0
247 88 -268 269 0
-247 -88 -268 269 0
-247 88 268 269 0
247 -88 268 269 0
88 268 -270 0
247 268 -270 0
247 88 -270 0
-88 -268 270 0
-247 -268 270 0
-247 -88 270 0
249 89 270 -271 0
-249 -89 270 -271 0
-249 89 -270 -271 0
249 -89 -270 -271 0
249 89 -270 271 0
-249 -89 -270 271 0
-249 89 270 271 0
249 -89 270 271 0
89 270 -272 0
249 270 -272 0
249 89 -272 0
-89 -270 272 0
-249 -270 272 0
-249 -89 272 0
251 90 272 -273 0
-251 -90 272 -273 0
-251 90 -272 -273 0
251 -90 -272 -273 0
251 90 -272 273 0
-251 -90 -272 273 0
-251 90 272 273 0
251 -90 272 273 0
90 272 -274 0
251 272 -274 0
251 90 -274 0
-90 -272 274 0
-251 -272 274 0
-251 -90 274 0
253 91 274 -275 0
-253 -91 274 -275 0
-253 91 -274 -275 0
253 -91 -274 -275 0
253 91 -274 275 0
-253 -91 -274 275 0
-253 91 274 275 0
253 -91 274 275 0
91 274 -276 0
253 274 -276 0
253 91 -276 0
-91 -274 276 0
-253 -274 276 0
-253 -91 276 0
255 92 276 -277 0
-255 -92 276 -277 0
-255 92 -276 -277 0
255 -92 -276 -277 0
255 92 -276 277 0
-255 -92 -276 277 0
-255 92 276 277 0
255 -92 276 277 0
92 276 -278 0
255 276 -278 0
255 92 -278 0
-92 -276 278 0
-255 -276 278 0
-255 -92 278 0
257 93 278 -279 0
-257 -93 278 -279 0
-257 93 -278 -279 0
257 -93 -278 -279 0
257 93 -278 279 0
-257 -93 -278 279 0
-257 93 278 279 0
257 -93 278 279 0
93 278 -280 0
257 278 -280 0
257 93 -280 0
-93 -278 280 0
-257 -278 280 0
-257 -93 280 0
259 94 280 -281 0
-259 -94 280 -281 0
-259 94 -280 -281 0
259 -94 -280 -281 0
259 94 -280 281 0
-259 -94 -280 281 0
-259 94 280 281 0
259 -94 280 281 0
94 280 -282 0
259 280 -282 0
259 94 -282 0
-94 -280 282 0
-259 -280 282 0
-259 -94 282 0
261 95 282 -283 0
-261 -95 282 -283 0
-261 95 -282 -283 0
261 -95 -282 -283 0
261 95 -282 283 0
-261 -95 -282 283 0
-261 95 282 283 0
261 -95 282 283 0
95 282 -284 0
261 282 -284 0
261 95 -284 0
-95 -282 284 0
-261 -282 284 0
-261 -95 284 0
263 96 284 -285 0
-263 -96 284 -285 0
-263 96 -284 -285 0
263 -96 -284 -285 0
263 96 -284 285 0
-263 -96 -284 285 0
-263 96 284 285 0
263 -96 284 285 0
96 284 -286 0
263 284 -286 0
263 96 -286 0
-96 -284 286 0
-263 -284 286 0
-263 -96 286 0
265 97 286 -287 0
-265 -97 286 -287 0
-265 97 -286 -287 0
265 -97 -286 -287 0
265 97 -286 287 0
-265 -97 -286 287 0
-265 97 286 287 0
265 -97 286 287 0
97 286 -288 0
265 286 -288 0
265 97 -288 0
-97 -286 288 0
-265 -286 288 0
-265 -97 288 0
266 98 288 -289 0
-266 -98 288 -289 0
-266 98 -288 -289 0
266 -98 -288 -289 0
266 98 -288 289 0
-266 -98 -288 289 0
-266 98 288 289 0
266 -98 288 289 0
98 288 -290 0
266 288 -290 0
266 98 -290 0
-98 -288 290 0
-266 -288 290 0
-266 -98 290 0
269 99 -291 0
-269 -99 -291 0
-269 99 291 0
269 -99 291 0
99 -292 0
269 -292 0
269 99 -292 0
-269 -99 292 0
271 100 292 -293 0
-271 -100 292 -293 0
-271 100 -292 -293 0
271 -100 -292 -293 0
271 100 -292 293 0
-271 -100 -292 293 0
-271 100 292 293 0
271 -100 292 293 0
100 292 -294 0
271 292 -294 0
271 100 -294 0
-100 -292 294 0
-271 -292 294 0
-271 -100 294 0
273 101 294 -295 0
-273 -101 294 -295 0
-273 101 -294 -295 0
273 -101 -294 -295 0
273 101 -294 295 0
-273 -101 -294 295 0
-273 101 294 295 0
273 -101 294 295 0
101 294 -296 0
273 294 -296 0
273 101 -296 0
-101 -294 296 0
-273 -294 296 0
-273 -101 296 0
275 102 296 -297 0
-275 -102 296 -297 0
-275 102 -296 -297 0
275 -102 -296 -297 0
275 102 -296 297 0
-275 -102 -296 297 0
-275 102 296 297 0
275 -102 296 297 0
102 296 -298 0
275 296 -298 0
275 102 -298 0
-102 -296 298 0
-275 -296 298 0
-275 -102 298 0
277 103 298 -299 0
-277 -103 298 -299 0
-277 103 -298 -299 0
277 -103 -298 -299 0
277 103 -298 299 0
-277 -103 -298 299 0
-277 103 298 299 0
277 -103 298 299 0
103 298 -300 0
277 298 -300 0
277 103 -300 0
-103 -298 300 0
-277 -298 300 0
-277 -103 300 0
279 104 300 -301 0
-279 -104 300 -301 0
-279 104 -300 -301 0
279 -104 -300 -301 0
279 104 -300 301 0
-279 -104 -300 301 0
-279 104 300 301 0
279 -104 300 301 0
104 300 -302 0
279 300 -302 0
279 104 -302 0
-104 -300 302 0
-279 -300 302 0
-279 -104 302 0
281 105 302 -303 0
-281 -105 302 -303 0
-281 105 -302 -303 0
281 -105 -302 -303 0
281 105 -302 303 0
-281 -105 -302 303 0
-281 105 302 303 0
281 -105 302 303 0
105 302 -304 0
281 302 -304 0
281 105 -304 0
-105 -302 304 0
-281 -302 304 0
-281 -105 304 0
283 106 304 -305 0
-283 -106 304 -305 0
-283 106 -304 -305 0
283 -106 -304 -305 0
283 106 -304 305 0
-283 -106 -304 305 0
-283 106 304 305 0
283 -106 304 305 0
106 304 -306 0
283 304 -306 0
283 106 -306 0
-106 -304 306 0
-283 -304 306 0
-283 -106 306 0
285 107 306 -307 0
-285 -107 306 -307 0
-285 107 -306 -307 0
285 -107 -306 -307 0
285 107 -306 307 0
-285 -107 -306 307 0
-285 107 306 307 0
285 -107 306 307 0
107 306 -308 0
285 306 -308 0
285 107 -308 0
-107 -306 308 0
-285 -306 308 0
-285 -107 308 0
287 108 308 -309 0
-287 -108 308 -309 0
-287 108 -308 -309 0
287 -108 -308 -309 0
287 108 -308 309 0
-287 -108 -308 309 0
-287 108 308 309 0
287 -108 308 309 0
108 308 -310 0
287 308 -310 0
287 108 -310 0
-108 -308 310 0
-287 -308 310 0
-287 -108 310 0
289 109 310 -311 0
-289 -109 310 -311 0
-289 109 -310 -311 0
289 -109 -310 -311 0
289 109 -310 311 0
-289 -109 -310 311 0
-289 109 310 311 0
289 -109 310 311 0
109 310 -312 0
289 310 -312 0
289 109 -312 0
-109 -310 312 0
-289 -310 312 0
-289 -109 312 0
290 110 312 -313 0
-290 -110 312 -313 0
-290 110 -312 -313 0
290 -110 -312 -313 0
290 110 -312 313 0
-290 -110 -312 313 0
-290 110 312 313 0
290 -110 312 313 0
110 312 -314 0
290 312 -314 0
290 110 -314 0
-110 -312 314 0
-290 -312 314 0
-290 -110 314 0
293 111 -315 0
-293 -111 -315 0
-293 111 315 0
293 -111 315 0
111 -316 0
293 -316 0
293 111 -316 0
-293 -111 316 0
295 112 316 -317 0
-295 -112 316 -317 0
-295 112 -316 -317 0
295 -112 -316 -317 0
295 112 -316 317 0
-295 -112 -316 317 0
-295 112 316 317 0
295 -112 316 317 0
112 316 -318 0
295 316 -318 0
295 112 -318 0
-112 -316 318 0
-295 -316 318 0
-295 -112 318 0
297 113 318 -319 0
-297 -113 318 -319 0
-297 113 -318 -319 0
297 -113 -318 -319 0
297 113 -318 319 0
-297 -113 -318 319 0
-297 113 318 319 0
297 -113 318 319 0
113 318 -320 0
297 318 -320 0
297 113 -320 0
-113 -318 320 0
-297 -318 320 0
-297 -113 320 0
299 114 320 -321 0
-299 -114 320 -321 0
-299 114 -320 -321 0
299 -114 -320 -321 0
299 114 -320 321 0
-299 -114 -320 321 0
-299 114 320 321 0
299 -114 320 321 0
114 320 -322 0
299 320 -322 0
299 114 -322 0
-114 -320 322 0
-299 -320 322 0
-299 -114 322 0
301 115 322 -323 0
-301 -115 322 -323 0
-301 115 -322 -323 0
301 -115 -322 -323 0
301 115 -322 323 0
-301 -115 -322 323 0
-301 115 322 323 0
301 -115 322 323 0
115 322 -324 0
301 322 -324 0
301 115 -324 0
-115 -322 324 0
-301 -322 324 0
-301 -115 324 0
303 116 324 -325 0
-303 -116 324 -325 0
-303 116 -324 -325 0
303 -116 -324 -325 0
303 116 -324 325 0
-303 -116 -324 325 0
-303 116 324 325 0
303 -116 324 325 0
116 324 -326 0
303 324 -326 0
303 116 -326 0
-116 -324 326 0
-303 -324 326 0
-303 -116 326 0
305 117 326 -327 0
-305 -117 326 -327 0
-305 117 -326 -327 0
305 -117 -326 -327 0
305 117 -326 327 0
-305 -117 -326 327 0
-305 117 326 327 0
305 -117 326 327 0
117 326 -328 0
305 326 -328 0
305 117 -328 0
-117 -326 328 0
-305 -326 328 0
-305 -117 328 0
307 118 328 -329 0
-307 -118 328 -329 0
-307 118 -328 -329 0
307 -118 -328 -329 0
307 118 -328 329 0
-307 -118 -328 329 0
-307 118 328 329 0
307 -118 328 329 0
118 328 -330 0
307 328 -330 0
307 118 -330 0
-118 -328 330 0
-307 -328 330 0
-307 -118 330 0
309 119 330 -331 0
-309 -119 330 -331 0
-309 119 -330 -331 0
309 -119 -330 -331 0
309 119 -330 331 0
-309 -119 -330 331 0
-309 119 330 331 0
309 -119 330 331 0
119 330 -332 0
309 330 -332 0
309 119 -332 0
-119 -330 332 0
-309 -330 332 0
-309 -119 332 0
311 120 332 -333 0
-311 -120 332 -333 0
-311 120 -332 -333 0
311 -120 -332 -333 0
311 120 -332 333 0
-311 -120 -332 333 0
-311 120 332 333 0
311 -120 332 333 0
120 332 -334 0
311 332 -334 0
311 120 -334 0
-120 -332 334 0
-311 -332 334 0
-311 -120 334 0
313 121 334 -335 0
-313 -121 334 -335 0
-313 121 -334 -335 0
313 -121 -334 -335 0
313 121 -334 335 0
-313 -121 -334 335 0
-313 121 334 335 0
313 -121 334 335 0
121 334 -336 0
313 334 -336 0
313 121 -336 0
-121 -334 336 0
-313 -334 336 0
-313 -121 336 0
314 122 336 -337 0
-314 -122 336 -337 0
-314 122 -336 -337 0
314 -122 -336 -337 0
314 122 -336 337 0
-314 -122 -336 337 0
-314 122 336 337 0
314 -122 336 337 0
122 336 -338 0
314 336 -338 0
314 122 -338 0
-122 -336 338 0
-314 -336 338 0
-314 -122 338 0
317 123 -339 0
-317 -123 -339 0
-317 123 339 0
317 -123 339 0
123 -340 0
317 -340 0
317 123 -340 0
-317 -123 340 0
319 124 340 -341 0
-319 -124 340 -341 0
-319 124 -340 -341 0
319 -124 -340 -341 0
319 124 -340 341 0
-319 -124 -340 341 0
-319 124 340 341 0
319 -124 340 341 0
124 340 -342 0
319 340 -342 0
319 124 -342 0
-124 -340 342 0
-319 -340 342 0
-319 -124 342 0
321 125 342 -343 0
-321 -125 342 -343 0
-321 125 -342 -343 0
321 -125 -342 -343 0
321 125 -342 343 0
-321 -125 -342 343 0
-321 125 342 343 0
321 -125 342 343 0
125 342 -344 0
321 342 -344 0
321 125 -344 0
-125 -342 344 0
-321 -342 344 0
-321 -125 344 0
323 126 344 -345 0
-323 -126 344 -345 0
-323 126 -344 -345 0
323 -126 -344 -345 0
323 126 -344 345 0
-323 -126 -344 345 0
-323 126 344 345 0
323 -126 344 345 0
126 344 -346 0
323 344 -346 0
323 126 -346 0
-126 -344 346 0
-323 -344 346 0
-323 -126 346 0
325 127 346 -347 0
-325 -127 346 -347 0
-325 127 -346 -347 0
325 -127 -346 -347 0
325 127 -346 347 0
-325 -127 -346 347 0
-325 127 346 347 0
325 -127 346 347 0
127 346 -348 0
325 346 -348 0
325 127 -348 0
-127 -346 348 0
-325 -346 348 0
-325 -127 348 0
327 128 348 -349 0
-327 -128 348 -349 0
-327 128 -348 -349 0
327 -128 -348 -349 0
327 128 -348 349 0
-327 -128 -348 349 0
-327 128 348 349 0
327 -128 348 349 0
128 348 -350 0
327 348 -350 0
327 128 -350 0
-128 -348 350 0
-327 -348 350 0
-327 -128 350 0
329 129 350 -351 0
-329 -129 350 -351 0
-329 129 -350 -351 0
329 -129 -350 -351 0
329 129 -350 351 0
-329 -129 -350 351 0
-329 129 350 351 0
329 -129 350 351 0
129 350 -352 0
329 350 -352 0
329 129 -352 0
-129 -350 352 0
-329 -350 352 0
-329 -129 352 0
331 130 352 -353 0
-331 -130 352 -353 0
-331 130 -352 -353 0
331 -130 -352 -353 0
331 130 -352 353 0
-331 -130 -352 353 0
-331 130 352 353 0
331 -130 352 353 0
130 352 -354 0
331 352 -354 0
331 130 -354 0
-130 -352 354 0
-331 -352 354 0
-331 -130 354 0
333 131 354 -355 0
-333 -131 354 -355 0
-333 131 -354 -355 0
333 -131 -354 -355 0
333 131 -354 355 0
-333 -131 -354 355 0
-333 131 354 355 0
333 -131 354 355 0
131 354 -356 0
333 354 -356 0
333 131 -356 0
-131 -354 356 0
-333 -354 356 0
-333 -131 356 0
335 132 356 -357 0
-335 -132 356 -357 0
-335 132 -356 -357 0
335 -132 -356 -357 0
335 132 -356 357 0
-335 -132 -356 357 0
-335 132 356 357 0
335 -132 356 357 0
132 356 -358 0
335 356 -358 0
335 132 -358 0
-132 -356 358 0
-335 -356 358 0
-335 -132 358 0
337 133 358 -359 0
-337 -133 358 -359 0
-337 133 -358 -359 0
337 -133 -358 -359 0
337 133 -358 359 0
-337 -133 -358 359 0
-337 133 358 359 0
337 -133 358 359 0
133 358 -360 0
337 358 -360 0
337 133 -360 0
-133 -358 360 0
-337 -358 360 0
-337 -133 360 0
338 134 360 -361 0
-338 -134 360 -361 0
-338 134 -360 -361 0
338 -134 -360 -361 0
338 134 -360 361 0
-338 -134 -360 361 0
-338 134 360 361 0
338 -134 360 361 0
134 360 -362 0
338 360 -362 0
338 134 -362 0
-134 -360 362 0
-338 -360 362 0
-338 -134 362 0
341 135 -363 0
-341 -135 -363 0
-341 135 363 0
341 -135 363 0
135 -364 0
341 -364 0
341 135 -364 0
-341 -135 364 0
343 136 364 -365 0
-343 -136 364 -365 0
-343 136 -364 -365 0
343 -136 -364 -365 0
343 136 -364 365 0
-343 -136 -364 365 0
-343 136 364 365 0
343 -136 364 365 0
136 364 -366 0
343 364 -366 0
343 136 -366 0
-136 -364 366 0
-343 -364 366 0
-343 -136 366 0
345 137 366 -367 0
-345 -137 366 -367 0
-345 137 -366 -367 0
345 -137 -366 -367 0
345 137 -366 367 0
-345 -137 -366 367 0
-345 137 366 367 0
345 -137 366 367 0
137 366 -368 0
345 366 -368 0
345 137 -368 0
-137 -366 368 0
-345 -366 368 0
-345 -137 368 0
347 138 368 -369 0
-347 -138 368 -369 0
-347 138 -368 -369 0
347 -138 -368 -369 0
347 138 -368 369 0
-347 -138 -368 369 0
-347 138 368 369 0
347 -138 368 369 0
138 368 -370 0
347 368 -370 0
347 138 -370 0
-138 -368 370 0
-347 -368 370 0
-347 -138 370 0
349 139 370 -371 0
-349 -139 370 -371 0
-349 139 -370 -371 0
349 -139 -370 -371 0
349 139 -370 371 0
-349 -139 -370 371 0
-349 139 370 371 0
349 -139 370 371 0
139 370 -372 0
349 370 -372 0
349 139 -372 0
-139 -370 372 0
-349 -370 372 0
-349 -139 372 0
351 140 372 -373 0
-351 -140 372 -373 0
-351 140 -372 -373 0
351 -140 -372 -373 0
351 140 -372 373 0
-351 -140 -372 373 0
-351 140 372 373 0
351 -140 372 373 0
140 372 -374 0
351 372 -374 0
351 140 -374 0
-140 -372 374 0
-351 -372 374 0
-351 -140 374 0
353 141 374 -375 0
-353 -141 374 -375 0
-353 141 -374 -375 0
353 -141 -374 -375 0
353 141 -374 375 0
-353 -141 -374 375 0
-353 141 374 375 0
353 -141 374 375 0
141 374 -376 0
353 374 -376 0
353 141 -376 0
-141 -374 376 0
-353 -374 376 0
-353 -141 376 0
355 142 376 -377 0
-355 -142 376 -377 0
-355 142 -376 -377 0
355 -142 -376 -377 0
355 142 -376 377 0
-355 -142 -376 377 0
-355 142 376 377 0
355 -142 376 377 0
142 376 -378 0
355 376 -378 0
355 142 -378 0
-142 -376 378 0
-355 -376 378 0
-355 -142 378 0
357 143 378 -379 0
-357 -143 378 -379 0
-357 143 -378 -379 0
357 -143 -378 -379 0
357 143 -378 379 0
-357 -143 -378 379 0
-357 143 378 379 0
357 -143 378 379 0
143 378 -380 0
357 378 -380 0
357 143 -380 0
-143 -378 380 0
-357 -378 380 0
-357 -143 380 0
359 144 380 -381 0
-359 -144 380 -381 0
-359 144 -380 -381 0
359 -144 -380 -381 0
359 144 -380 381 0
-359 -144 -380 381 0
-359 144 380 381 0
359 -144 380 381 0
144 380 -382 0
359 380 -382 0
359 144 -382 0
-144 -380 382 0
-359 -380 382 0
-359 -144 382 0
361 145 382 -383 0
-361 -145 382 -383 0
-361 145 -382 -383 0
361 -145 -382 -383 0
361 145 -382 383 0
-361 -145 -382 383 0
-361 145 382 383 0
361 -145 382 383 0
145 382 -384 0
361 382 -384 0
361 145 -384 0
-145 -382 384 0
-361 -382 384 0
-361 -145 384 0
362 146 384 -385 0
-362 -146 384 -385 0
-362 146 -384 -385 0
362 -146 -384 -385 0
362 146 -384 385 0
-362 -146 -384 385 0
-362 146 384 385 0
362 -146 384 385 0
146 384 -386 0
362 384 -386 0
362 146 -386 0
-146 -384 386 0
-362 -384 386 0
-362 -146 386 0
365 147 -387 0
-365 -147 -387 0
-365 147 387 0
365 -147 387 0
147 -388 0
365 -388 0
365 147 -388 0
-365 -147 388 0
367 148 388 -389 0
-367 -148 388 -389 0
-367 148 -388 -389 0
367 -148 -388 -389 0
367 148 -388 389 0
-367 -148 -388 389 0
-367 148 388 389 0
367 -148 388 389 0
148 388 -390 0
367 388 -390 0
367 148 -390 0
-148 -388 390 0
-367 -388 390 0
-367 -148 390 0
369 149 390 -391 0
-369 -149 390 -391 0
-369 149 -390 -391 0
369 -149 -390 -391 0
369 149 -390 391 0
-369 -149 -390 391 0
-369 149 390 391 0
369 -149 390 391 0
149 390 -392 0
369 390 -392 0
369 149 -392 0
-149 -390 392 0
-369 -390 392 0
-369 -149 392 0
371 150 392 -393 0
-371 -150 392 -393 0
-371 150 -392 -393 0
371 -150 -392 -393 0
371 150 -392 393 0
-371 -150 -392 393 0
-371 150 392 393 0
371 -150 392 393 0
150 392 -394 0
371 392 -394 0
371 150 -394 0
-150 -392 394 0
-371 -392 394 0
-371 -150 394 0
373 151 394 -395 0
-373 -151 394 -395 0
-373 151 -394 -395 0
373 -151 -394 -395 0
373 151 -394 395 0
-373 -151 -394 395 0
-373 151 394 395 0
373 -151 394 395 0
151 394 -396 0
373 394 -396 0
373 151 -396 0
-151 -394 396 0
-373 -394 396 0
-373 -151 396 0
375 152 396 -397 0
-375 -152 396 -397 0
-375 152 -396 -397 0
375 -152 -396 -397 0
375 152 -396 397 0
-375 -152 -396 397 0
-375 152 396 397 0
375 -152 396 397 0
152 396 -398 0
375 396 -398 0
375 152 -398 0
-152 -396 398 0
-375 -396 398 0
-375 -152 398 0
377 153 398 -399 0
-377 -153 398 -399 0
-377 153 -398 -399 0
377 -153 -398 -399 0
377 153 -398 399 0
-377 -153 -398 399 0
-377 153 398 399 0
377 -153 398 399 0
153 398 -400 0
377 398 -400 0
377 153 -400 0
-153 -398 400 0
-377 -398 400 0
-377 -153 400 0
379 154 400 -401 0
-379 -154 400 -401 0
-379 154 -400 -401 0
379 -154 -400 -401 0
379 154 -400 401 0
-379 -154 -400 401 0
-379 154 400 401 0
379 -154 400 401 0
154 400 -402 0
379 400 -402 0
379 154 -402 0
-154 -400 402 0
-379 -400 402 0
-379 -154 402 0
381 155 402 -403 0
-381 -155 402 -403 0
-381 155 -402 -403 0
381 -155 -402 -403 0
381 155 -402 403 0
-381 -155 -402 403 0
-381 155 402 403 0
381 -155 402 403 0
155 402 -404 0
381 402 -404 0
381 155 -404 0
-155 -402 404 0
-381 -402 404 0
-381 -155 404 0
383 156 404 -405 0
-383 -156 404 -405 0
-383 156 -404 -405 0
383 -156 -404 -405 0
383 156 -404 405 0
-383 -156 -404 405 0
-383 156 404 405 0
383 -156 404 405 0
156 404 -406 0
383 404 -406 0
383 156 -406 0
-156 -404 406 0
-383 -404 406 0
-383 -156 406 0
385 157 406 -407 0
-385 -157 406 -407 0
-385 157 -406 -407 0
385 -157 -406 -407 0
385 157 -406 407 0
-385 -157 -406 407 0
-385 157 406 407 0
385 -157 406 407 0
157 406 -408 0
385 406 -408 0
385 157 -408 0
-157 -406 408 0
-385 -406 408 0
-385 -157 408 0
386 158 408 -409 0
-386 -158 408 -409 0
-386 158 -408 -409 0
386 -158 -408 -409 0
386 158 -408 409 0
-386 -158 -408 409 0
-386 158 408 409 0
386 -158 408 409 0
158 408 -410 0
386 408 -410 0
386 158 -410 0
-158 -408 410 0
-386 -408 410 0
-386 -158 410 0
389 159 -411 0
-389 -159 -411 0
-389 159 411 0
389 -159 411 0
159 -412 0
389 -412 0
389 159 -412 0
-389 -159 412 0
391 160 412 -413 0
-391 -160 412 -413 0
-391 160 -412 -413 0
391 -160 -412 -413 0
391 160 -412 413 0
-391 -160 -412 413 0
-391 160 412 413 0
391 -160 412 413 0
160 412 -414 0
391 412 -414 0
391 160 -414 0
-160 -412 414 0
-391 -412 414 0
-391 -160 414 0
393 161 414 -415 0
-393 -161 414 -415 0
-393 161 -414 -415 0
393 -161 -414 -415 0
393 161 -414 415 0
-393 -161 -414 415 0
-393 161 414 415 0
393 -161 414 415 0
161 414 -416 0
393 414 -416 0
393 161 -416 0
-161 -414 416 0
-393 -414 416 0
-393 -161 416 0
395 162 416 -417 0
-395 -162 416 -417 0
-395 162 -416 -417 0
395 -162 -416 -417 0
395 162 -416 417 0
-395 -162 -416 417 0
-395 162 416 417 0
395 -162 416 417 0
162 416 -418 0
395 416 -418 0
395 162 -418 0
-162 -416 418 0
-395 -416 418 0
-395 -162 418 0
397 163 418 -419 0
-397 -163 418 -419 0
-397 163 -418 -419 0
397 -163 -418 -419 0
397 163 -418 419 0
-397 -163 -418 419 0
-397 163 418 419 0
397 -163 418 419 0
163 418 -420 0
397 418 -420 0
397 163 -420 0
-163 -418 420 0
-397 -418 420 0
-397 -163 420 0
399 164 420 -421 0
-399 -164 420 -421 0
-399 164 -420 -421 0
399 -164 -420 -421 0
399 164 -420 421 0
-399 -164 -420 421 0
-399 164 420 421 0
399 -164 420 421 0
164 420 -422 0
399 420 -422 0
399 164 -422 0
-164 -420 422 0
-399 -420 422 0
-399 -164 422 0
401 165 422 -423 0
-401 -165 422 -423 0
-401 165 -422 -423 0
401 -165 -422 -423 0
401 165 -422 423 0
-401 -165 -422 423 0
-401 165 422 423 0
401 -165 422 423 0
165 422 -424 0
401 422 -424 0
401 165 -424 0
-165 -422 424 0
-401 -422 424 0
-401 -165 424 0
403 166 424 -425 0
-403 -166 424 -425 0
-403 166 -424 -425 0
403 -166 -424 -425 0
403 166 -424 425 0
-403 -166 -424 425 0
-403 166 424 425 0
403 -166 424 425 0
166 424 -426 0
403 424 -426 0
403 166 -426 0
-166 -424 426 0
-403 -424 426 0
-403 -166 426 0
405 167 426 -427 0
-405 -167 426 -427 0
-405 167 -426 -427 0
405 -167 -426 -427 0
405 167 -426 427 0
-405 -167 -426 427 0
-405 167 426 427 0
405 -167 426 427 0
167 426 -428 0
405 426 -428 0
405 167 -428 0
-167 -426 428 0
-405 -426 428 0
-405 -167 428 0
407 168 428 -429 0
-407 -168 428 -429 0
-407 168 -428 -429 0
407 -168 -428 -429 0
407 168 -428 429 0
-407 -168 -428 429 0
-407 168 428 429 0
407 -168 428 429 0
168 428 -430 0
407 428 -430 0
407 168 -430 0
-168 -428 430 0
-407 -428 430 0
-407 -168 430 0
409 169 430 -431 0
-409 -169 430 -431 0
-409 169 -430 -431 0
409 -169 -430 -431 0
409 169 -430 431 0
-409 -169 -430 431 0
-409 169 430 431 0
409 -169 430 431 0
169 430 -432 0
409 430 -432 0
409 169 -432 0
-169 -430 432 0
-409 -430 432 0
-409 -169 432 0
410 170 432 -433 0
-410 -170 432 -433 0
-410 170 -432 -433 0
410 -170 -432 -433 0
410 170 -432 433 0
-410 -170 -432 433 0
-410 170 432 433 0
410 -170 432 433 0
170 432 -434 0
410 432 -434 0
410 170 -434 0
-170 -432 434 0
-410 -432 434 0
-410 -170 434 0
27 0
171 0
195 0
219 0
-243 0
267 0
-291 0
-315 0
-339 0
363 0
387 0
411 0
-413 0
415 0
-417 0
-419 0
421 0
-423 0
-425 0
427 0
429 0
431 0
-433 0
434 0
